c =========================================================
c Complex-ish DIMACS test: comments, spacing, mixed lengths
c Formula:
c   (x1 ∨ ¬x2 ∨ x5)
c ∧ (¬x1 ∨ x3)
c ∧ (x2 ∨ x3 ∨ x4 ∨ ¬x5)
c ∧ (¬x4)
c ∧ (x1 ∨ x2 ∨ x3 ∨ x4 ∨ x5)
c =========================================================

p cnf 5 5

   1   -2   5    0
c comment between clauses
  -1     3  0

   2  3   4   -5     0

c unit clause
   -4 0

c long clause
  1 2 3 4 5 0
